c CNF file corresponding to a (partial) station packing problem.
p cnf 3656 229
3640 3641 3642 3643 3644 3645 3646 3647 3648 3649 3650 3651 3652 3653 3654 3655 3656 0
-3640 -3641 0
-3640 -3642 0
-3640 -3643 0
-3640 -3644 0
-3640 -3645 0
-3640 -3646 0
-3640 -3647 0
-3640 -3648 0
-3640 -3649 0
-3640 -3650 0
-3640 -3651 0
-3640 -3652 0
-3640 -3653 0
-3640 -3654 0
-3640 -3655 0
-3640 -3656 0
-3641 -3642 0
-3641 -3643 0
-3641 -3644 0
-3641 -3645 0
-3641 -3646 0
-3641 -3647 0
-3641 -3648 0
-3641 -3649 0
-3641 -3650 0
-3641 -3651 0
-3641 -3652 0
-3641 -3653 0
-3641 -3654 0
-3641 -3655 0
-3641 -3656 0
-3642 -3643 0
-3642 -3644 0
-3642 -3645 0
-3642 -3646 0
-3642 -3647 0
-3642 -3648 0
-3642 -3649 0
-3642 -3650 0
-3642 -3651 0
-3642 -3652 0
-3642 -3653 0
-3642 -3654 0
-3642 -3655 0
-3642 -3656 0
-3643 -3644 0
-3643 -3645 0
-3643 -3646 0
-3643 -3647 0
-3643 -3648 0
-3643 -3649 0
-3643 -3650 0
-3643 -3651 0
-3643 -3652 0
-3643 -3653 0
-3643 -3654 0
-3643 -3655 0
-3643 -3656 0
-3644 -3645 0
-3644 -3646 0
-3644 -3647 0
-3644 -3648 0
-3644 -3649 0
-3644 -3650 0
-3644 -3651 0
-3644 -3652 0
-3644 -3653 0
-3644 -3654 0
-3644 -3655 0
-3644 -3656 0
-3645 -3646 0
-3645 -3647 0
-3645 -3648 0
-3645 -3649 0
-3645 -3650 0
-3645 -3651 0
-3645 -3652 0
-3645 -3653 0
-3645 -3654 0
-3645 -3655 0
-3645 -3656 0
-3646 -3647 0
-3646 -3648 0
-3646 -3649 0
-3646 -3650 0
-3646 -3651 0
-3646 -3652 0
-3646 -3653 0
-3646 -3654 0
-3646 -3655 0
-3646 -3656 0
-3647 -3648 0
-3647 -3649 0
-3647 -3650 0
-3647 -3651 0
-3647 -3652 0
-3647 -3653 0
-3647 -3654 0
-3647 -3655 0
-3647 -3656 0
-3648 -3649 0
-3648 -3650 0
-3648 -3651 0
-3648 -3652 0
-3648 -3653 0
-3648 -3654 0
-3648 -3655 0
-3648 -3656 0
-3649 -3650 0
-3649 -3651 0
-3649 -3652 0
-3649 -3653 0
-3649 -3654 0
-3649 -3655 0
-3649 -3656 0
-3650 -3651 0
-3650 -3652 0
-3650 -3653 0
-3650 -3654 0
-3650 -3655 0
-3650 -3656 0
-3651 -3652 0
-3651 -3653 0
-3651 -3654 0
-3651 -3655 0
-3651 -3656 0
-3652 -3653 0
-3652 -3654 0
-3652 -3655 0
-3652 -3656 0
-3653 -3654 0
-3653 -3655 0
-3653 -3656 0
-3654 -3655 0
-3654 -3656 0
-3655 -3656 0
1 2 3 4 5 6 7 8 9 10 11 12 13 14 0
-1 -2 0
-1 -3 0
-1 -4 0
-1 -5 0
-1 -6 0
-1 -7 0
-1 -8 0
-1 -9 0
-1 -10 0
-1 -11 0
-1 -12 0
-1 -13 0
-1 -14 0
-2 -3 0
-2 -4 0
-2 -5 0
-2 -6 0
-2 -7 0
-2 -8 0
-2 -9 0
-2 -10 0
-2 -11 0
-2 -12 0
-2 -13 0
-2 -14 0
-3 -4 0
-3 -5 0
-3 -6 0
-3 -7 0
-3 -8 0
-3 -9 0
-3 -10 0
-3 -11 0
-3 -12 0
-3 -13 0
-3 -14 0
-4 -5 0
-4 -6 0
-4 -7 0
-4 -8 0
-4 -9 0
-4 -10 0
-4 -11 0
-4 -12 0
-4 -13 0
-4 -14 0
-5 -6 0
-5 -7 0
-5 -8 0
-5 -9 0
-5 -10 0
-5 -11 0
-5 -12 0
-5 -13 0
-5 -14 0
-6 -7 0
-6 -8 0
-6 -9 0
-6 -10 0
-6 -11 0
-6 -12 0
-6 -13 0
-6 -14 0
-7 -8 0
-7 -9 0
-7 -10 0
-7 -11 0
-7 -12 0
-7 -13 0
-7 -14 0
-8 -9 0
-8 -10 0
-8 -11 0
-8 -12 0
-8 -13 0
-8 -14 0
-9 -10 0
-9 -11 0
-9 -12 0
-9 -13 0
-9 -14 0
-10 -11 0
-10 -12 0
-10 -13 0
-10 -14 0
-11 -12 0
-11 -13 0
-11 -14 0
-12 -13 0
-12 -14 0
-13 -14 0
